
Gurobi 10.0.1 (linux64) logging started Thu May 11 19:56:39 2023

Set parameter LogFile to value "logFiles/N-1L-B/N-1L-13U-10F-23V-120D-varprod.log"
Gurobi Optimizer version 10.0.1 build v10.0.1rc0 (linux64)

CPU model: Intel(R) Xeon(R) Gold 5115 CPU @ 2.40GHz, instruction set [SSE2|AVX|AVX2|AVX512]
Thread count: 20 physical cores, 40 logical processors, using up to 20 threads

Optimize a model with 62707 rows, 863916 columns and 5542581 nonzeros
Model fingerprint: 0xafc92f47
Variable types: 1774 continuous, 862142 integer (862142 binary)
Coefficient statistics:
  Matrix range     [1e+00, 2e+05]
  Objective range  [4e+01, 3e+07]
  Bounds range     [1e+00, 1e+00]
  RHS range        [1e+00, 2e+06]
Presolve removed 32328 rows and 71686 columns (presolve time = 5s) ...
Presolve removed 33515 rows and 98238 columns (presolve time = 10s) ...
Presolve removed 33515 rows and 98238 columns (presolve time = 15s) ...
Presolve removed 33452 rows and 98175 columns
Presolve time: 19.44s
Presolved: 29255 rows, 765741 columns, 4165090 nonzeros
Variable types: 1763 continuous, 763978 integer (763978 binary)
Deterministic concurrent LP optimizer: primal simplex, dual simplex, and barrier
Showing barrier log only...

Root barrier log...

Ordering time: 1.52s

Barrier statistics:
 AA' NZ     : 1.903e+06
 Factor NZ  : 7.182e+06 (roughly 400 MB of memory)
 Factor Ops : 1.111e+10 (less than 1 second per iteration)
 Threads    : 17

                  Objective                Residual
Iter       Primal          Dual         Primal    Dual     Compl     Time
   0  -1.75372067e+16  1.65352784e+12  2.21e+09 5.97e+05  1.01e+11    29s
   1  -4.41029387e+15  3.06926282e+12  5.57e+08 5.25e+05  2.57e+10    29s
   2  -6.41988349e+14  2.87725096e+12  8.20e+07 2.10e-09  3.81e+09    30s
   3  -1.65535320e+13  1.63084011e+12  2.11e+06 1.86e-09  9.93e+07    30s
   4  -5.60986423e+12  9.31075733e+11  7.16e+05 1.98e-09  3.40e+07    31s
   5  -2.17336444e+12  7.64304390e+11  2.77e+05 6.93e-09  1.35e+07    31s
   6  -1.28341004e+12  6.71510244e+11  1.64e+05 1.00e-08  8.08e+06    31s
   7  -6.17633552e+11  5.77041434e+11  7.88e+04 1.08e-08  3.97e+06    32s
   8  -2.41795701e+11  4.37902214e+11  3.09e+04 3.49e-09  1.61e+06    32s
   9  -1.19131200e+11  3.13942313e+11  1.53e+04 1.86e-09  8.10e+05    32s
  10  -6.38310242e+10  2.07087616e+11  8.29e+03 3.38e-09  4.31e+05    33s
  11  -3.01939993e+10  9.57987864e+10  4.03e+03 1.98e-09  1.86e+05    33s
  12  -2.13576178e+09  4.83475482e+10  4.73e+02 1.51e-09  4.35e+04    34s
  13   3.31549141e+08  2.53356807e+10  1.61e+02 1.80e-09  1.92e+04    34s
  14   4.02031104e+08  2.37422828e+10  1.52e+02 2.91e-09  1.80e+04    34s
  15   8.69083826e+08  1.64577140e+10  9.32e+01 2.13e-07  1.17e+04    35s
  16   1.14749274e+09  1.13041545e+10  5.86e+01 1.35e-07  7.57e+03    36s
  17   1.24086750e+09  9.52980261e+09  4.74e+01 1.15e-07  6.18e+03    36s
  18   1.38040956e+09  7.76648032e+09  3.05e+01 8.53e-08  4.69e+03    36s
  19   1.43329439e+09  6.39314007e+09  2.44e+01 7.29e-08  3.69e+03    37s
  20   1.44421437e+09  5.87153565e+09  2.31e+01 7.42e-08  3.33e+03    37s
  21   1.48944587e+09  5.40372902e+09  1.80e+01 7.38e-08  2.91e+03    38s
  22   1.54109374e+09  4.78362537e+09  1.17e+01 6.65e-08  2.37e+03    38s
  23   1.57968133e+09  4.21219764e+09  7.31e+00 7.02e-08  1.89e+03    39s
  24   1.58724151e+09  3.73398618e+09  6.42e+00 4.07e-08  1.56e+03    39s
  25   1.59988332e+09  3.24977718e+09  5.10e+00 4.59e-08  1.21e+03    40s
  26   1.60843812e+09  3.13427662e+09  4.36e+00 5.36e-08  1.11e+03    41s
  27   1.61521419e+09  3.06381920e+09  4.16e+00 5.70e-08  1.06e+03    41s
  28   1.62362906e+09  2.93716395e+09  3.83e+00 5.48e-08  9.55e+02    42s
  29   1.62506138e+09  2.81212683e+09  3.32e+00 6.71e-08  8.59e+02    42s
  30   1.63485295e+09  2.68749731e+09  2.66e+00 6.14e-08  7.52e+02    43s
  31   1.63714580e+09  2.59228882e+09  2.47e+00 7.10e-08  6.81e+02    43s
  32   1.64322929e+09  2.42170524e+09  1.97e+00 7.45e-08  5.50e+02    44s
  33   1.65130766e+09  2.27620117e+09  1.57e+00 5.04e-08  4.37e+02    44s
  34   1.65690617e+09  2.07873867e+09  1.28e+00 5.96e-08  2.93e+02    45s
  35   1.65772241e+09  2.03179476e+09  1.15e+00 6.40e-08  2.59e+02    45s
  36   1.66247449e+09  1.98106723e+09  8.68e-01 6.73e-08  2.18e+02    46s
  37   1.66927750e+09  1.89207520e+09  5.75e-01 3.82e-08  1.50e+02    46s
  38   1.67064305e+09  1.84579004e+09  5.14e-01 5.86e-08  1.18e+02    47s
  39   1.67113626e+09  1.78905165e+09  4.80e-01 5.86e-08  7.94e+01    47s
  40   1.67632865e+09  1.77410013e+09  2.67e-01 4.94e-08  6.50e+01    48s
  41   1.67840658e+09  1.76753240e+09  2.11e-01 6.00e-08  5.91e+01    49s
  42   1.67904401e+09  1.76118315e+09  1.95e-01 6.37e-08  5.44e+01    49s
  43   1.68079385e+09  1.75025012e+09  1.56e-01 4.90e-08  4.59e+01    50s
  44   1.68150409e+09  1.74372102e+09  1.44e-01 6.26e-08  4.11e+01    50s
  45   1.68334255e+09  1.73758014e+09  1.11e-01 6.09e-08  3.58e+01    51s
  46   1.68357440e+09  1.73682657e+09  1.09e-01 4.60e-08  3.51e+01    51s
  47   1.68524535e+09  1.72998672e+09  8.79e-02 6.86e-08  2.95e+01    52s
  48   1.68785613e+09  1.72290414e+09  6.06e-02 4.14e-08  2.31e+01    52s
  49   1.68940411e+09  1.71867716e+09  4.85e-02 5.90e-08  1.93e+01    53s
  50   1.68986172e+09  1.71789817e+09  4.53e-02 4.75e-08  1.84e+01    53s
  51   1.69151200e+09  1.71437324e+09  3.48e-02 5.03e-08  1.50e+01    54s
  52   1.69297265e+09  1.71024577e+09  2.66e-02 4.35e-08  1.14e+01    54s
  53   1.69412922e+09  1.70848547e+09  2.16e-02 6.52e-08  9.44e+00    55s
  54   1.69527262e+09  1.70638171e+09  1.74e-02 7.17e-08  7.31e+00    55s
  55   1.69662027e+09  1.70587500e+09  1.26e-02 5.97e-08  6.08e+00    56s
  56   1.69754253e+09  1.70407990e+09  9.85e-03 4.61e-08  4.30e+00    56s
  57   1.69838176e+09  1.70308837e+09  7.27e-03 4.59e-08  3.10e+00    57s
  58   1.69885115e+09  1.70262979e+09  5.78e-03 4.08e-08  2.49e+00    57s
  59   1.69990158e+09  1.70162914e+09  2.69e-03 7.78e-08  1.14e+00    58s
  60   1.70016832e+09  1.70123793e+09  1.94e-03 5.05e-08  7.07e-01    58s
  61   1.70051478e+09  1.70111495e+09  9.81e-04 5.47e-08  3.96e-01    59s
  62   1.70067402e+09  1.70103032e+09  5.56e-04 6.11e-08  2.35e-01    59s
  63   1.70080499e+09  1.70094029e+09  2.10e-04 7.51e-08  8.94e-02    60s
  64   1.70085611e+09  1.70091098e+09  7.98e-05 6.94e-08  3.62e-02    60s
  65   1.70086738e+09  1.70089778e+09  5.28e-05 7.83e-08  2.01e-02    60s
  66   1.70088481e+09  1.70089406e+09  1.09e-05 8.41e-08  6.10e-03    61s
  67   1.70088898e+09  1.70089079e+09  2.28e-06 5.69e-08  1.19e-03    61s
  68   1.70088974e+09  1.70089041e+09  4.24e-07 6.67e-08  4.45e-04    62s
  69   1.70088984e+09  1.70088994e+09  1.58e-07 9.14e-08  6.31e-05    62s
  70   1.70088990e+09  1.70088991e+09  2.42e-08 7.46e-08  3.40e-06    62s
  71   1.70088991e+09  1.70088991e+09  4.78e-09 8.02e-08  2.41e-10    63s

Barrier solved model in 71 iterations and 62.92 seconds (53.87 work units)
Optimal objective 1.70088991e+09


Root crossover log...

   23830 DPushes remaining with DInf 0.0000000e+00                63s
       0 DPushes remaining with DInf 0.0000000e+00                64s

    1456 PPushes remaining with PInf 1.0077269e-05                64s
       0 PPushes remaining with PInf 0.0000000e+00                64s

  Push phase complete: Pinf 0.0000000e+00, Dinf 2.5531429e+07     64s


Root simplex log...

Iteration    Objective       Primal Inf.    Dual Inf.      Time
   25220    1.7008899e+09   0.000000e+00   2.553143e+07     64s
   25230    1.7008899e+09   0.000000e+00   0.000000e+00     64s
Concurrent spin time: 0.02s

Solved with barrier
   25232    1.7008899e+09   0.000000e+00   0.000000e+00     64s
Extra simplex iterations after uncrush: 2

Root relaxation: objective 1.700890e+09, 25232 iterations, 41.51 seconds (25.95 work units)
Total elapsed time = 65.21s

    Nodes    |    Current Node    |     Objective Bounds      |     Work
 Expl Unexpl |  Obj  Depth IntInf | Incumbent    BestBd   Gap | It/Node Time

     0     0 1.7009e+09    0  254          - 1.7009e+09      -     -   68s
     0     0 1.7009e+09    0  251          - 1.7009e+09      -     -   88s
H    0     0                    1.685939e+09 1.7009e+09  0.88%     -  124s
H    0     0                    1.693419e+09 1.7009e+09  0.44%     -  222s
     0     0 1.7009e+09    0  250 1.6934e+09 1.7009e+09  0.44%     -  223s
     0     0 1.7008e+09    0  249 1.6934e+09 1.7008e+09  0.44%     -  237s
H    0     0                    1.693509e+09 1.7008e+09  0.43%     -  313s
     0     0 1.7008e+09    0  242 1.6935e+09 1.7008e+09  0.43%     -  313s
     0     0 1.7008e+09    0  271 1.6935e+09 1.7008e+09  0.43%     -  323s
     0     0 1.7008e+09    0  261 1.6935e+09 1.7008e+09  0.43%     -  393s
     0     0 1.7008e+09    0  273 1.6935e+09 1.7008e+09  0.43%     -  403s
     0     0 1.7008e+09    0  274 1.6935e+09 1.7008e+09  0.43%     -  413s
     0     0 1.7008e+09    0  287 1.6935e+09 1.7008e+09  0.43%     -  423s
     0     0 1.7008e+09    0  290 1.6935e+09 1.7008e+09  0.43%     -  434s
     0     0 1.7008e+09    0  294 1.6935e+09 1.7008e+09  0.43%     -  440s
     0     0 1.7008e+09    0  294 1.6935e+09 1.7008e+09  0.43%     -  447s
     0     0 1.7008e+09    0  294 1.6935e+09 1.7008e+09  0.43%     -  448s
     0     0 1.7008e+09    0  298 1.6935e+09 1.7008e+09  0.43%     -  465s
     0     0 1.7008e+09    0  291 1.6935e+09 1.7008e+09  0.43%     -  469s
     0     0 1.7008e+09    0  294 1.6935e+09 1.7008e+09  0.43%     -  477s
     0     0 1.7008e+09    0  287 1.6935e+09 1.7008e+09  0.43%     -  481s
     0     0 1.7008e+09    0  274 1.6935e+09 1.7008e+09  0.43%     -  486s
     0     0 1.7008e+09    0  271 1.6935e+09 1.7008e+09  0.43%     -  488s
     0     0 1.7008e+09    0  273 1.6935e+09 1.7008e+09  0.43%     -  491s
     0     0 1.7008e+09    0  263 1.6935e+09 1.7008e+09  0.43%     -  501s
     0     2 1.7008e+09    0  255 1.6935e+09 1.7008e+09  0.43%     -  716s
     1     4 1.7008e+09    1  250 1.6935e+09 1.7008e+09  0.43%  9490  733s
     3     8 1.7008e+09    2  258 1.6935e+09 1.7008e+09  0.43%  3925  759s
     7    16 1.7008e+09    3  267 1.6935e+09 1.7008e+09  0.43%  2247  786s
    15    32 1.7008e+09    4  277 1.6935e+09 1.7008e+09  0.43%  1270  817s
H   31    52                    1.694080e+09 1.7008e+09  0.40%   868 1953s
H   34    52                    1.694689e+09 1.7008e+09  0.36%   820 1954s
H   36    52                    1.694849e+09 1.7008e+09  0.35%   778 1956s
H   37    52                    1.695203e+09 1.7008e+09  0.33%   760 1957s
H   46    52                    1.695210e+09 1.7008e+09  0.33%   668 1959s
H   47    52                    1.695462e+09 1.7008e+09  0.32%   663 1961s
    51    72 1.7008e+09    6  254 1.6955e+09 1.7008e+09  0.32%   673 2309s
    67    72 1.7008e+09    6  226 1.6955e+09 1.7008e+09  0.32%   815 2310s
    71    92 1.7008e+09    6  300 1.6955e+09 1.7008e+09  0.32%   856 2352s
    91   112 1.7008e+09    7  252 1.6955e+09 1.7008e+09  0.32%   834 2384s
   111   146 1.7008e+09    7  257 1.6955e+09 1.7008e+09  0.32%   763 2429s
   145   176 1.7008e+09    8  258 1.6955e+09 1.7008e+09  0.32%   680 2472s
   175   298 1.7008e+09    8  264 1.6955e+09 1.7008e+09  0.32%   630 2637s
   297   500 1.7008e+09   11  234 1.6955e+09 1.7008e+09  0.32%   593 2915s
   515   795 1.7006e+09   13  231 1.6955e+09 1.7008e+09  0.32%   577 3217s
   850  1065 1.7006e+09   18  165 1.6955e+09 1.7008e+09  0.32%   457 3458s
  1176  1370 1.7006e+09   30  156 1.6955e+09 1.7008e+09  0.32%   377 3666s
  1522  1777 1.7006e+09   42  125 1.6955e+09 1.7008e+09  0.32%   326 3824s
  1940  2180 1.7005e+09   66  161 1.6955e+09 1.7008e+09  0.32%   287 3972s
  2387  2620 1.7005e+09   91  143 1.6955e+09 1.7008e+09  0.32%   262 4109s
  2864  3200 1.7005e+09  108  153 1.6955e+09 1.7008e+09  0.32%   247 4242s
  3514  3807 1.7005e+09  136  147 1.6955e+09 1.7008e+09  0.32%   220 4366s
H 3862  3807                    1.695488e+09 1.7008e+09  0.31%   209 4367s
  4202  3825 1.7005e+09  153  133 1.6955e+09 1.7008e+09  0.31%   200 4944s
H 4209  3824                    1.695522e+09 1.7008e+09  0.31%   199 4946s
  4222  4388 1.7005e+09  154  129 1.6955e+09 1.7008e+09  0.31%   199 5065s
  4868  4979 1.7005e+09  170  157 1.6955e+09 1.7008e+09  0.31%   184 5173s
  5528  5325 1.7005e+09  181  140 1.6955e+09 1.7008e+09  0.31%   170 5312s
H 5613  5325                    1.695522e+09 1.7008e+09  0.31%   169 5314s
  5911  5976 1.7005e+09  183  148 1.6955e+09 1.7008e+09  0.31%   163 5416s
  6601  6655 1.7005e+09  208  149 1.6955e+09 1.7008e+09  0.31%   153 5514s
  7328  7066 1.7004e+09  225  167 1.6955e+09 1.7008e+09  0.31%   143 5695s
H 7489  7066                    1.695538e+09 1.7008e+09  0.31%   141 5696s
H 7575  7066                    1.695538e+09 1.7008e+09  0.31%   140 5698s
  7749  7754 1.7004e+09  226  159 1.6955e+09 1.7008e+09  0.31%   138 5793s
  8472  8468 1.7004e+09  251  150 1.6955e+09 1.7008e+09  0.31%   131 5902s
  9204  8717 1.7004e+09  282  152 1.6955e+09 1.7008e+09  0.31%   125 6191s
  9453  9488 1.7004e+09  305  151 1.6955e+09 1.7008e+09  0.31%   123 6307s
 10230 10244 1.7004e+09  344  153 1.6955e+09 1.7008e+09  0.31%   118 6408s
 11001 11007 1.7004e+09  378  157 1.6955e+09 1.7008e+09  0.31%   113 6492s

Cutting planes:
  Cover: 16
  Implied bound: 43
  MIR: 38
  Flow cover: 45
  GUB cover: 2
  RLT: 4
  Relax-and-lift: 5

Explored 11774 nodes (1332505 simplex iterations) in 10800.80 seconds (10932.10 work units)
Thread count was 20 (of 40 available processors)

Solution count 10: 1.69554e+09 1.69554e+09 1.69552e+09 ... 1.69469e+09

Time limit reached
Best objective 1.695537540722e+09, best bound 1.700810341414e+09, gap 0.3110%
